[2026-03-24T15:11:16.365Z] Pipeline "set_vm-3-t1_vm-3-t1_s021_g002" → 2026_03_24_15_11_16_set_vm-3-t1_vm-3-t1_s021_g002_max.sol
Set parameter Username
Set parameter LicenseID to value 2796068
Set parameter LogFile to value "gurobi.log"
Using license file /opt/gurobi/gurobi.lic
Academic license - for non-commercial use only - expires 2027-03-23

Gurobi Optimizer version 13.0.1 build v13.0.1rc0 (linux64 - "Ubuntu 24.04.4 LTS")
Copyright (c) 2026, Gurobi Optimization, LLC

Warning: Duplicate section found (read 'binary') - Is a variable name equal to an LP file format keyword?
Warning: Duplicate section found (read 'binary') - Is a variable name equal to an LP file format keyword?
Warning: Duplicate section found (read 'binary') - Is a variable name equal to an LP file format keyword?
Warning: Duplicate section found (read 'binary') - Is a variable name equal to an LP file format keyword?
Warning: Duplicate section found (read 'binary') - Is a variable name equal to an LP file format keyword?
Warning: Duplicate section found (read 'binary') - Is a variable name equal to an LP file format keyword?
Warning: Duplicate section found (read 'binary') - Is a variable name equal to an LP file format keyword?
Warning: Duplicate section found (read 'binary') - Is a variable name equal to an LP file format keyword?
Warning: Duplicate section found (read 'binary') - Is a variable name equal to an LP file format keyword?
Warning: Duplicate section found (read 'binary') - Is a variable name equal to an LP file format keyword?
Warning: Further warnings of this type will be omitted.
Read LP format model from file /root/bgw/data/uploads/2026_03_24_15_11_16_set_vm-3-t1_vm-3-t1_s021_g002_max.lp
Reading time = 0.01 seconds
: 9402 rows, 581 columns, 28760 nonzeros

Using Gurobi shared library /opt/gurobi1301/linux64/lib/libgurobi.so.13.0.1

CPU model: AMD EPYC-Genoa Processor, instruction set [SSE2|AVX|AVX2|AVX512]
Thread count: 16 physical cores, 16 logical processors, using up to 16 threads

Optimize a model with 9402 rows, 581 columns and 28760 nonzeros (Max)
Model fingerprint: 0xb18ec389
Model has 21 linear objective coefficients
Variable types: 52 continuous, 529 integer (529 binary)
Coefficient statistics:
  Matrix range     [1e+00, 3e+01]
  Objective range  [1e+00, 1e+00]
  Bounds range     [1e+00, 1e+00]
  RHS range        [1e+00, 3e+01]

Found heuristic solution: objective 21.0000000
Presolve removed 372 rows and 92 columns
Presolve time: 0.03s
Presolved: 9030 rows, 489 columns, 27314 nonzeros
Variable types: 0 continuous, 489 integer (481 binary)
Found heuristic solution: objective 35.0000000

Root relaxation: objective 1.090000e+02, 405 iterations, 0.03 seconds (0.04 work units)

    Nodes    |    Current Node    |     Objective Bounds      |     Work
 Expl Unexpl |  Obj  Depth IntInf | Incumbent    BestBd   Gap | It/Node Time

     0     0  109.00000    0   54   35.00000  109.00000   211%     -    0s
H    0     0                      42.0000000  109.00000   160%     -    0s
H    0     0                      52.0000000  109.00000   110%     -    0s
H    0     0                      55.0000000  109.00000  98.2%     -    0s
H    0     0                      58.0000000  109.00000  87.9%     -    0s
     0     0  109.00000    0   55   58.00000  109.00000  87.9%     -    0s
     0     0  108.75862    0   55   58.00000  108.75862  87.5%     -    0s
     0     0  102.00000    0   46   58.00000  102.00000  75.9%     -    0s
     0     0  102.00000    0   32   58.00000  102.00000  75.9%     -    0s
     0     0  102.00000    0   32   58.00000  102.00000  75.9%     -    0s
     0     0  102.00000    0   31   58.00000  102.00000  75.9%     -    0s
     0     0  102.00000    0   31   58.00000  102.00000  75.9%     -    0s
     0     0  102.00000    0   42   58.00000  102.00000  75.9%     -    0s
     0     0  102.00000    0   32   58.00000  102.00000  75.9%     -    0s
     0     0  102.00000    0   35   58.00000  102.00000  75.9%     -    0s
     0     0  102.00000    0   35   58.00000  102.00000  75.9%     -    0s
     0     0  102.00000    0   34   58.00000  102.00000  75.9%     -    0s
     0     0  102.00000    0   38   58.00000  102.00000  75.9%     -    0s
     0     0  102.00000    0   31   58.00000  102.00000  75.9%     -    0s
     0     0  101.75862    0   33   58.00000  101.75862  75.4%     -    0s
     0     0  101.75862    0   27   58.00000  101.75862  75.4%     -    0s
     0     0  100.06897    0   27   58.00000  100.06897  72.5%     -    0s
     0     0  100.06897    0   27   58.00000  100.06897  72.5%     -    0s
     0     0   99.96552    0   27   58.00000   99.96552  72.4%     -    0s
     0     0   99.96552    0   27   58.00000   99.96552  72.4%     -    0s
     0     2   99.96552    0   27   58.00000   99.96552  72.4%     -    0s
  2576   588   65.55886   15   20   58.00000   88.43858  52.5%   142    5s
  5864   580   59.96211   15  117   58.00000   73.75862  27.2%   173   10s

Cutting planes:
  Cover: 43
  MIR: 3
  StrongCG: 1
  Inf proof: 100
  Zero half: 1

Explored 8407 nodes (1562149 simplex iterations) in 13.74 seconds (23.94 work units)
Thread count was 16 (of 16 available processors)

Solution count 6: 58 55 52 ... 21

Optimal solution found (tolerance 1.00e-04)
Best objective 5.800000000000e+01, best bound 5.800000000000e+01, gap 0.0000%

Wrote result file '/root/bgw/data/results/2026_03_24_15_11_16_set_vm-3-t1_vm-3-t1_s021_g002_max.sol'

